
    -----------------------------------------------------------------------
          Psi4: An Open-Source Ab Initio Electronic Structure Package
                               Psi4 1.9.1 release

                         Git: Rev {} zzzzzzz 


    D. G. A. Smith, L. A. Burns, A. C. Simmonett, R. M. Parrish,
    M. C. Schieber, R. Galvelis, P. Kraus, H. Kruse, R. Di Remigio,
    A. Alenaizan, A. M. James, S. Lehtola, J. P. Misiewicz, M. Scheurer,
    R. A. Shaw, J. B. Schriber, Y. Xie, Z. L. Glick, D. A. Sirianni,
    J. S. O'Brien, J. M. Waldrop, A. Kumar, E. G. Hohenstein,
    B. P. Pritchard, B. R. Brooks, H. F. Schaefer III, A. Yu. Sokolov,
    K. Patkowski, A. E. DePrince III, U. Bozkaya, R. A. King,
    F. A. Evangelista, J. M. Turney, T. D. Crawford, C. D. Sherrill,
    J. Chem. Phys. 152(18) 184108 (2020). https://doi.org/10.1063/5.0006002

                            Additional Code Authors
    E. T. Seidl, C. L. Janssen, E. F. Valeev, M. L. Leininger,
    J. F. Gonthier, R. M. Richard, H. R. McAlexander, M. Saitow, X. Wang,
    P. Verma, M. H. Lechner, A. Jiang, S. Behnle, A. G. Heide,
    M. F. Herbst, and D. L. Poole

             Previous Authors, Complete List of Code Contributors,
                       and Citations for Specific Modules
    https://github.com/psi4/psi4/blob/master/codemeta.json
    https://github.com/psi4/psi4/graphs/contributors
    http://psicode.org/psi4manual/master/introduction.html#citing-psifour

    -----------------------------------------------------------------------


    Psi4 started on: Tuesday, 04 August 2026 11:20PM

    Process ID: 724215
    Host:       daniilkh
    PSIDATADIR: /opt/forte/env/share/psi4
    Memory:     500.0 MiB
    Threads:    16
    
  ==> Input File <==

--------------------------------------------------------------------------
import forte

memory 4 gb

molecule naph{
  0 1
  C 0.000000  2.434012  0.708635
  C 0.000000  1.245004  1.402781
  C 0.000000  1.245004 -1.402781
  C 0.000000  0.000000  0.716898
  C 0.000000  2.434012 -0.708635
  C 0.000000  0.000000 -0.716898
  C 0.000000 -1.245004  1.402781
  C 0.000000 -2.434012  0.708635
  C 0.000000 -2.434012 -0.708635
  C 0.000000 -1.245004 -1.402781
  H 0.000000  3.378853  1.245785
  H 0.000000  1.242353  2.490559
  H 0.000000  3.378853 -1.245785
  H 0.000000 -1.242353 -2.490559
  H 0.000000  1.242353 -2.490559
  H 0.000000 -1.242353  2.490559
  H 0.000000 -3.378853  1.245785
  H 0.000000 -3.378853 -1.245785

  units angstrom
  symmetry c1
  noreorient
  nocom
}

set globals{
  basis                  cc-pvdz
  df_basis_scf           cc-pvdz-jkfit
  df_basis_mp2           cc-pvdz-jkfit
  reference              rhf
  scf_type               df
  d_convergence          10
  e_convergence          12
  ints_tolerance         0.0
  mcscf_type             df
  mcscf_e_convergence    12
  mcscf_r_convergence    8
  mcscf_diis_start       8
  mcscf_max_rot          0.2
}
Escf, wfn = energy('scf', return_wfn=True)

set forte{
  subspace               ["C(2px)"]
  avas                   true
  avas_diagonalize       true
  avas_num_active_occ    5
  avas_num_active_vir    5
  job_type               mcscf_two_step
  active_space_solver    detci
  restricted_docc        [29]
  active                 [10]
  multiplicity           1
  ms                     0.0
  e_convergence          12
  r_convergence          7
  mcscf_g_convergence   1e-8
  mcscf_e_convergence   1e-12
  int_type               df
  mcscf_final_orbital   unspecified
  print                  2
}
Ecas, wfn = energy("forte", ref_wfn=wfn, return_wfn=True)

set forte{
  avas                   false
  job_type               newdriver
  active_space_solver    detci
  correlation_solver     sa-mrdsrg
  corr_level             pt2
  frozen_docc            [0]
  restricted_docc        [29]
  active                 [10]
  multiplicity           1
  ms                     0.0
  dsrg_s                 0.5
  e_convergence          12
  int_type               df
  mcscf_reference        false
  dsrg_3rdm_algorithm    direct
  print                  2
}
energy('forte', ref_wfn=wfn)
--------------------------------------------------------------------------

  Memory set to   3.725 GiB by Python driver.

Scratch directory: /tmp/
   => Libint2 <=

    Primary   basis highest AM E, G, H:  6, 6, 3
    Auxiliary basis highest AM E, G, H:  7, 7, 4
    Onebody   basis highest AM E, G, H:  -, -, -
    Solid Harmonics ordering:            Gaussian

*** tstart() called on daniilkh
*** at Tue Aug  4 23:20:07 2026

   => Loading Basis Set <=

    Name: CC-PVDZ
    Role: ORBITAL
    Keyword: BASIS
    atoms 1-10  entry C          line   138 file /opt/forte/env/share/psi4/basis/cc-pvdz.gbs 
    atoms 11-18 entry H          line    22 file /opt/forte/env/share/psi4/basis/cc-pvdz.gbs 


         ---------------------------------------------------------
                                   SCF
               by Justin Turney, Rob Parrish, Andy Simmonett
                          and Daniel G. A. Smith
                              RHF Reference
                       16 Threads,   3814 MiB Core
         ---------------------------------------------------------

  ==> Geometry <==

    Molecular point group: c1
    Full point group: D2h

    Geometry (in Angstrom), charge = 0, multiplicity = 1:

       Center              X                  Y                   Z               Mass       
    ------------   -----------------  -----------------  -----------------  -----------------
         C            0.000000000000     2.434012000000     0.708635000000    12.000000000000
         C            0.000000000000     1.245004000000     1.402781000000    12.000000000000
         C            0.000000000000     1.245004000000    -1.402781000000    12.000000000000
         C            0.000000000000     0.000000000000     0.716898000000    12.000000000000
         C            0.000000000000     2.434012000000    -0.708635000000    12.000000000000
         C            0.000000000000     0.000000000000    -0.716898000000    12.000000000000
         C            0.000000000000    -1.245004000000     1.402781000000    12.000000000000
         C            0.000000000000    -2.434012000000     0.708635000000    12.000000000000
         C            0.000000000000    -2.434012000000    -0.708635000000    12.000000000000
         C            0.000000000000    -1.245004000000    -1.402781000000    12.000000000000
         H            0.000000000000     3.378853000000     1.245785000000     1.007825032230
         H            0.000000000000     1.242353000000     2.490559000000     1.007825032230
         H            0.000000000000     3.378853000000    -1.245785000000     1.007825032230
         H            0.000000000000    -1.242353000000    -2.490559000000     1.007825032230
         H            0.000000000000     1.242353000000    -2.490559000000     1.007825032230
         H            0.000000000000    -1.242353000000     2.490559000000     1.007825032230
         H            0.000000000000    -3.378853000000     1.245785000000     1.007825032230
         H            0.000000000000    -3.378853000000    -1.245785000000     1.007825032230

  Running in c1 symmetry.

  Rotational constants: A =      0.10396  B =      0.04101  C =      0.02941 [cm^-1]
  Rotational constants: A =   3116.64538  B =   1229.57406  C =    881.71947 [MHz]
  Nuclear repulsion =  457.118570885671261

  Charge       = 0
  Multiplicity = 1
  Electrons    = 68
  Nalpha       = 34
  Nbeta        = 34

  ==> Algorithm <==

  SCF Algorithm Type is DF.
  DIIS enabled.
  MOM disabled.
  Fractional occupation disabled.
  Guess Type is SAD.
  Energy threshold   = 1.00e-12
  Density threshold  = 1.00e-10
  Integral threshold = 0.00e+00

  ==> Primary Basis <==

  Basis Set: CC-PVDZ
    Blend: CC-PVDZ
    Number of shells: 84
    Number of basis functions: 180
    Number of Cartesian functions: 190
    Spherical Harmonics?: true
    Max angular momentum: 2

   => Loading Basis Set <=

    Name: CC-PVDZ-JKFIT
    Role: JKFIT
    Keyword: DF_BASIS_SCF
    atoms 1-10  entry C          line   121 file /opt/forte/env/share/psi4/basis/cc-pvdz-jkfit.gbs 
    atoms 11-18 entry H          line    51 file /opt/forte/env/share/psi4/basis/cc-pvdz-jkfit.gbs 

  ==> Integral Setup <==

  DFHelper Memory: AOs need 0.228 GiB; user supplied 2.794 GiB. 
  Using in-core AOs.

  ==> MemDFJK: Density-Fitted J/K Matrices <==

    J tasked:                   Yes
    K tasked:                   Yes
    wK tasked:                   No
    OpenMP threads:              16
    Memory [MiB]:              2861
    Algorithm:                 Core
    Schwarz Cutoff:           0E+00
    Mask sparsity (%):       0.0000
    Fitting Condition:        1E-10

   => Auxiliary Basis Set <=

  Basis Set: CC-PVDZ-JKFIT
    Blend: CC-PVDZ-JKFIT
    Number of shells: 312
    Number of basis functions: 884
    Number of Cartesian functions: 1010
    Spherical Harmonics?: true
    Max angular momentum: 3

  Minimum eigenvalue in the overlap matrix is 1.9313339957E-04.
  Reciprocal condition number of the overlap matrix is 3.2136813727E-05.
    Using symmetric orthogonalization.

  ==> Pre-Iterations <==

  SCF Guess: Superposition of Atomic Densities via on-the-fly atomic UHF (no occupation information).

   -------------------------
    Irrep   Nso     Nmo    
   -------------------------
     A        180     180 
   -------------------------
    Total     180     180
   -------------------------

  ==> Iterations <==

                           Total Energy        Delta E     RMS |[F,P]|

   @DF-RHF iter SAD:  -382.82986669267632   -3.82830e+02   0.00000e+00 
   @DF-RHF iter   1:  -383.22024448800806   -3.90378e-01   2.59093e-03 ADIIS/DIIS
   @DF-RHF iter   2:  -383.36213134513878   -1.41887e-01   1.01487e-03 ADIIS/DIIS
   @DF-RHF iter   3:  -383.38083021380857   -1.86989e-02   2.72117e-04 ADIIS/DIIS
   @DF-RHF iter   4:  -383.38267375534605   -1.84354e-03   8.64449e-05 DIIS
   @DF-RHF iter   5:  -383.38282280408242   -1.49049e-04   2.03656e-05 DIIS
   @DF-RHF iter   6:  -383.38283775426436   -1.49502e-05   7.98471e-06 DIIS
   @DF-RHF iter   7:  -383.38284095069372   -3.19643e-06   3.19965e-06 DIIS
   @DF-RHF iter   8:  -383.38284188400934   -9.33316e-07   7.92182e-07 DIIS
   @DF-RHF iter   9:  -383.38284194494190   -6.09326e-08   9.52176e-08 DIIS
   @DF-RHF iter  10:  -383.38284194546469   -5.22789e-10   1.20838e-08 DIIS
   @DF-RHF iter  11:  -383.38284194546890   -4.20641e-12   2.01563e-09 DIIS
   @DF-RHF iter  12:  -383.38284194546912   -2.27374e-13   3.83767e-10 DIIS
   @DF-RHF iter  13:  -383.38284194546907    5.68434e-14   6.29161e-11 DIIS
  Energy and wave function converged.


  ==> Post-Iterations <==

    Orbital Energies [Eh]
    ---------------------

    Doubly Occupied:                                                      

       1A    -11.247887     2A    -11.246927     3A    -11.242598  
       4A    -11.242559     5A    -11.242208     6A    -11.242112  
       7A    -11.241279     8A    -11.241225     9A    -11.240664  
      10A    -11.240639    11A     -1.174200    12A     -1.107814  
      13A     -1.049253    14A     -1.007237    15A     -0.980174  
      16A     -0.852799    17A     -0.834669    18A     -0.809262  
      19A     -0.705656    20A     -0.696050    21A     -0.674637  
      22A     -0.621490    23A     -0.608297    24A     -0.581809  
      25A     -0.580835    26A     -0.562176    27A     -0.529913  
      28A     -0.521852    29A     -0.486492    30A     -0.474218  
      31A     -0.445877    32A     -0.383319    33A     -0.316715  
      34A     -0.286908  

    Virtual:                                                              

      35A      0.089163    36A      0.119516    37A      0.177747  
      38A      0.184377    39A      0.199633    40A      0.199774  
      41A      0.234348    42A      0.239383    43A      0.252789  
      44A      0.274338    45A      0.275117    46A      0.294235  
      47A      0.387244    48A      0.395042    49A      0.435354  
      50A      0.443557    51A      0.464964    52A      0.466120  
      53A      0.471827    54A      0.509421    55A      0.578186  
      56A      0.595024    57A      0.648215    58A      0.668049  
      59A      0.674473    60A      0.675849    61A      0.684919  
      62A      0.698147    63A      0.704925    64A      0.710863  
      65A      0.725217    66A      0.734954    67A      0.753356  
      68A      0.755950    69A      0.756840    70A      0.757138  
      71A      0.759853    72A      0.761963    73A      0.765755  
      74A      0.826445    75A      0.838014    76A      0.840870  
      77A      0.860707    78A      0.861781    79A      0.897198  
      80A      0.901974    81A      0.911599    82A      0.912925  
      83A      0.963875    84A      0.970274    85A      0.975685  
      86A      0.989106    87A      1.040530    88A      1.103145  
      89A      1.105369    90A      1.112881    91A      1.124983  
      92A      1.125852    93A      1.134209    94A      1.174259  
      95A      1.176958    96A      1.192887    97A      1.193336  
      98A      1.204998    99A      1.213067   100A      1.224849  
     101A      1.260955   102A      1.273351   103A      1.274759  
     104A      1.298062   105A      1.325719   106A      1.337406  
     107A      1.339782   108A      1.358262   109A      1.385325  
     110A      1.500976   111A      1.537596   112A      1.543311  
     113A      1.588518   114A      1.635232   115A      1.663139  
     116A      1.666896   117A      1.708562   118A      1.738969  
     119A      1.740654   120A      1.753691   121A      1.778772  
     122A      1.796435   123A      1.835350   124A      1.843221  
     125A      1.873103   126A      1.887010   127A      1.903416  
     128A      1.907375   129A      1.919370   130A      1.925133  
     131A      1.932717   132A      1.952487   133A      1.958994  
     134A      1.962695   135A      1.994804   136A      1.997407  
     137A      2.014839   138A      2.044745   139A      2.063251  
     140A      2.099565   141A      2.107395   142A      2.112710  
     143A      2.121279   144A      2.124919   145A      2.136526  
     146A      2.170163   147A      2.176000   148A      2.181118  
     149A      2.183643   150A      2.196592   151A      2.245472  
     152A      2.299586   153A      2.315604   154A      2.319075  
     155A      2.362021   156A      2.363940   157A      2.384548  
     158A      2.398118   159A      2.481897   160A      2.507429  
     161A      2.587631   162A      2.610564   163A      2.616832  
     164A      2.718403   165A      2.730193   166A      2.739496  
     167A      2.769571   168A      2.825076   169A      2.840584  
     170A      2.930504   171A      3.016923   172A      3.021808  
     173A      3.033034   174A      3.038946   175A      3.153726  
     176A      3.177507   177A      3.215253   178A      3.318098  
     179A      3.832614   180A      3.965435  

    Final Occupation by Irrep:
              A 
    DOCC [    34 ]
    NA   [    34 ]
    NB   [    34 ]

  @DF-RHF Final Energy:  -383.38284194546907

   => Energetics <=

    Nuclear Repulsion Energy =            457.1185708856712608
    One-Electron Energy =               -1423.5633247260491316
    Two-Electron Energy =                 583.0619118949088033
    Total Energy =                       -383.3828419454690675

Computation Completed


Properties will be evaluated at   0.000000,   0.000000,   0.000000 [a0]

Properties computed using the SCF density matrix


 Multipole Moments:

 ------------------------------------------------------------------------------------
     Multipole            Electronic (a.u.)      Nuclear  (a.u.)        Total (a.u.)
 ------------------------------------------------------------------------------------

 L = 1.  Multiply by 2.5417464519 to convert [e a0] to [Debye]
 Dipole X            :         -0.0000000            0.0000000           -0.0000000
 Dipole Y            :         -0.0000000           -0.0000000           -0.0000000
 Dipole Z            :         -0.0000000            0.0000000           -0.0000000
 Magnitude           :                                                    0.0000000

 ------------------------------------------------------------------------------------

*** tstop() called on daniilkh at Tue Aug  4 23:20:09 2026
Module time:
	user time   =      21.84 seconds =       0.36 minutes
	system time =       0.92 seconds =       0.02 minutes
	total time  =          2 seconds =       0.03 minutes
Total time:
	user time   =      21.84 seconds =       0.36 minutes
	system time =       0.92 seconds =       0.02 minutes
	total time  =          2 seconds =       0.03 minutes

Scratch directory: /tmp/

  Forte
  ----------------------------------------------------------------------------
  A suite of quantum chemistry methods for strongly correlated electrons

    git branch:  - git commit: 

  Developed by:
    Francesco A. Evangelista, Chenyang Li, Kevin P. Hannon,
    Jeffrey B. Schriber, Tianyuan Zhang, Chenxi Cai,
    Nan He, Nicholas Stair, Shuhe Wang, Renke Huang
  ----------------------------------------------------------------------------


  Preparing forte objects from a Psi4 Wavefunction object   => Loading Basis Set <=

    Name: CC-PVDZ
    Role: ORBITAL
    Keyword: BASIS
    atoms 1-10  entry C          line   138 file /opt/forte/env/share/psi4/basis/cc-pvdz.gbs 
    atoms 11-18 entry H          line    22 file /opt/forte/env/share/psi4/basis/cc-pvdz.gbs 



  ==> MO Space Information <==

  -------------------------------
                        A   Sum
  -------------------------------
    FROZEN_DOCC         0     0
    RESTRICTED_DOCC    29    29
    GAS1               10    10
    GAS2                0     0
    GAS3                0     0
    GAS4                0     0
    GAS5                0     0
    GAS6                0     0
    RESTRICTED_UOCC   141   141
    FROZEN_UOCC         0     0
    Total             180   180
  -------------------------------   => Loading Basis Set <=

    Name: CC-PVDZ-JKFIT
    Role: RIFIT
    Keyword: DF_BASIS_MP2
    atoms 1-10  entry C          line   121 file /opt/forte/env/share/psi4/basis/cc-pvdz-jkfit.gbs 
    atoms 11-18 entry H          line    51 file /opt/forte/env/share/psi4/basis/cc-pvdz-jkfit.gbs 

   => Loading Basis Set <=

    Name: STO-3G
    Role: ORBITAL
    Keyword: MINAO_BASIS
    atoms 1-10  entry C          line    61 file /opt/forte/env/share/psi4/basis/sto-3g.gbs 
    atoms 11-18 entry H          line    19 file /opt/forte/env/share/psi4/basis/sto-3g.gbs 



  ==> List of Subspace Orbitals Requested <==
        C(2PX)


  ==> AO Basis Set Selected By Subspace <==

    =======================================
      AO  Atom  Label     Type  Coefficient
    ---------------------------------------
       3     1     C1      2PX   1.0000E+00
       8     2     C2      2PX   1.0000E+00
      13     3     C3      2PX   1.0000E+00
      18     4     C4      2PX   1.0000E+00
      23     5     C5      2PX   1.0000E+00
      28     6     C6      2PX   1.0000E+00
      33     7     C7      2PX   1.0000E+00
      38     8     C8      2PX   1.0000E+00
      43     9     C9      2PX   1.0000E+00
      48    10    C10      2PX   1.0000E+00
    ---------------------------------------
    Number of subspace orbitals:         10
    =======================================

  ==> Orbital Overlap with AO Subspace (> 1.00e-03) <==

    =======================
    Irrep   MO  <phi|P|phi>
    -----------------------
       A    27    0.972405
       A    31    0.963706
       A    32    0.961904
       A    33    0.959291
       A    34    0.952329
       A    35    0.892298
       A    36    0.873278
       A    37    0.818080
       A    45    0.839087
       A    48    0.762009
       A    58    0.026739
       A    62    0.028856
       A    64    0.086243
       A    71    0.081082
       A    72    0.050209
       A    74    0.108885
       A    75    0.166896
       A    76    0.091704
       A    81    0.131589
       A    86    0.119493
       A    87    0.001824
       A    89    0.002436
       A    95    0.002180
       A   100    0.004780
       A   101    0.005212
       A   103    0.005623
       A   105    0.006087
       A   107    0.006489
       A   115    0.006858
       A   116    0.007341
       A   119    0.004242
       A   120    0.004752
       A   121    0.005464
       A   134    0.002493
       A   135    0.001528
       A   141    0.002458
       A   143    0.001803
    ========================

                     --------------------------------------
                       Atomic Valence Active Space (AVAS)
                           Chenxi Cai and Chenyang Li
                     --------------------------------------


  ==> AVAS Options <==

    --------------------------------------------------------
    AVAS selection scheme                    # DOCC/UOCC MOS
    Diagonalize projected overlap matrices              TRUE
    AVAS sigma threshold (cumulative)              9.800e-01
    AVAS sigma direct cutoff                       1.000e+00
    Nonzero eigenvalue threshold                   1.000e-06
    Number of doubly occupied MOs                         34
    Number of singly occupied MOs                          0
    Number of unoccupied MOs                             146
    # Active AVAS MOs requested                            0
    # Active occupied AVAS MOs requested                   5
    # Active virtual AVAS MOs requested                    5
    --------------------------------------------------------
  Diagonalizing the doubly occupied projected overlap matrix ... Done
  Diagonalizing the unoccupied projected overlap matrix ........ Done
  Sum of eigenvalues: 9.96172196
  AVAS covers 98.28% of the subspace.

  ==> AVAS MOs Information <==

    ---------------------
                        A
    ---------------------
    DOCC INACTIVE      29
    DOCC ACTIVE         5
    SOCC ACTIVE         0
    UOCC ACTIVE         5
    UOCC INACTIVE     141
    ---------------------
    RESTRICTED_DOCC    29
    ACTIVE             10
    RESTRICTED_UOCC   141
    ---------------------

  ==> Atomic Valence MOs (Active Marked by *) <==

    ===============================
     Irrep    MO  Occ.  <phi|P|phi>
    -------------------------------
    *   A      0    2      0.972580
    *   A      1    2      0.963706
    *   A      2    2      0.961904
    *   A      3    2      0.959116
    *   A      4    2      0.952329
    *   A     34    0      0.996365
    *   A     35    0      0.996324
    *   A     36    0      0.996255
    *   A     37    0      0.995983
    *   A     38    0      0.995958
        A     39    0      0.044011
        A     40    0      0.037286
        A     41    0      0.034313
        A     42    0      0.032293
        A     43    0      0.023298
    ===============================

  ==> Semicanonicalize Subsets of Orbitals <==

  Canonicalizing orbital block INACTIVE DOCC ....... Done
  Canonicalizing orbital block ACTIVE DOCC ......... Done
  Canonicalizing orbital block ACTIVE UOCC ......... Done
  Canonicalizing orbital block INACTIVE UOCC ....... Done
  State Singlet (Ms = 0) A GAS min: 0 0 0 0 0 0 ; GAS max: 20 0 0 0 0 0 ; weights:
      1.000000000000
  Forte will use psi4 integrals

  ==> Primary Basis Set Summary <==

  Basis Set: CC-PVDZ
    Blend: CC-PVDZ
    Number of shells: 84
    Number of basis functions: 180
    Number of Cartesian functions: 190
    Spherical Harmonics?: true
    Max angular momentum: 2


  JK created using MemDF integrals
  DFHelper Memory: AOs need 0.228 GiB; user supplied 2.980 GiB. 
  Using in-core AOs.

  ==> MemDFJK: Density-Fitted J/K Matrices <==

    J tasked:                   Yes
    K tasked:                   Yes
    wK tasked:                   No
    OpenMP threads:              16
    Memory [MiB]:              3051
    Algorithm:                 Core
    Schwarz Cutoff:           0E+00
    Mask sparsity (%):       0.0000
    Fitting Condition:        1E-10

   => Auxiliary Basis Set <=

  Basis Set: CC-PVDZ-JKFIT
    Blend: CC-PVDZ-JKFIT
    Number of shells: 312
    Number of basis functions: 884
    Number of Cartesian functions: 1010
    Spherical Harmonics?: true
    Max angular momentum: 3



  ==> Integral Transformation <==

  Number of molecular orbitals:                        180
  Number of correlated molecular orbitals:             180
  Number of frozen occupied orbitals:                    0
  Number of frozen unoccupied orbitals:                  0
  Two-electron integral type:              Density fitting


  Skip integral allocation and transformation for AO-driven CASSCF.

          -----------------------------------------------------------
                  Multi-Configurational Self Consistent Field
                Two-Step Approximate Second-Order AO Algorithm
            written by Chenyang Li, Kevin P. Hannon, and Shuhe Wang
          -----------------------------------------------------------


  ==> MCSCF Calculation Information <==

    --------------------------------------------------------
    Print level                                      Default
    Integral type                                         DF
    CI solver type                                     DETCI
    Final orbital type                           UNSPECIFIED
    Derivative type                                     NONE
    Optimize orbitals                                   TRUE
    Include internal rotations                         FALSE
    Debug printing                                     FALSE
    Energy convergence                             1.000e-12
    Gradient convergence                           1.000e-08
    Max value for rotation                         2.000e-01
    Max number of macro iter.                            100
    Max number of micro iter. for orbitals                 6
    Max number of micro iter. for CI                      12
    DIIS start                                             8
    Min DIIS vectors                                       3
    Max DIIS vectors                                       8
    Frequency of DIIS extrapolation                        1
    --------------------------------------------------------

  ==> Independent Orbital Rotations <==

    ORBITAL SPACES                         A
    ----------------------------------------
             ACTIVE / RESTRICTED_DOCC    290
    RESTRICTED_UOCC /          ACTIVE   1410
    RESTRICTED_UOCC / RESTRICTED_DOCC   4089
    ----------------------------------------

  DF-MCSCF adopts integrals from DFHelper of Psi4.


  ==> General Determinant-Based CI Solver <==

  Number of active orbitals: 10
  Number of active alpha electrons: 5
  Number of active beta electrons: 5
  Number of determinants (CAS): 63504

  ==> Diagonalizing Hamiltonian Singlet (Ms = 0) A <==


  Davidson-Liu solver algorithm using SigmaVectorSparseList sigma algorithm

  Spin-adaptation of the initial guess based on minimum spin-complete subset
  Initial guess determinants do not form a spin-complete set. 2 determinant(s) missing

  Guess determinants after screening: 46

  ==> Initial Guess <==

  Initial guess determinants:         46

  Classification of the initial guess solutions

  Number   2S+1   Selected
  ------------------------
    24       1       *
    22       3        
  ------------------------

    Spin    Root           Energy        <S^2>    Status
  -------------------------------------------------------
   singlet    0     -383.387751624207  +0.000000  added
  -------------------------------------------------------

  ==> Davidson-Liu Solver <==

    --------------------------------------------------------
    Print level                                      Default
    Energy convergence threshold                   1.000e-12
    Residual convergence threshold                 1.000e-07
    Schmidt orthogonality threshold                1.000e-12
    Schmidt discard threshold                      1.000e-07
    Size of the space                                  63504
    Number of roots                                        1
    Maximum number of iterations                         100
    Collapse subspace size                                 2
    Maximum subspace size                                 10
    --------------------------------------------------------

  Davidson-Liu solver: adding 1 guess vectors
  Iteration     Average Energy            max(∆E)            max(Residual)  Vectors
  ---------------------------------------------------------------------------------
       0      -13.639878679447       13.639878679447        0.289990885437      1
       1      -13.728622883234        0.088744203787        0.136953565425      2
       2      -13.743304758940        0.014681875706        0.062651945634      3
       3      -13.745700474681        0.002395715742        0.025699033175      4
       4      -13.746029514993        0.000329040312        0.009621098113      5
       5      -13.746068324190        0.000038809197        0.003449990611      6
       6      -13.746072914410        0.000004590220        0.001102275354      7
       7      -13.746073391654        0.000000477243        0.000445268585      8
       8      -13.746073485472        0.000000093819        0.000206139677      9
       9      -13.746073507907        0.000000022435        0.000103536264     10
      10      -13.746073512428        0.000000004521        0.000051363839      3
      11      -13.746073514061        0.000000001632        0.000026555522      4
      12      -13.746073514386        0.000000000325        0.000011974862      5
      13      -13.746073514445        0.000000000059        0.000004412464      6
      14      -13.746073514453        0.000000000008        0.000001523739      7
      15      -13.746073514454        0.000000000001        0.000000620096      8
      16      -13.746073514454        0.000000000000        0.000000280399      9
      17      -13.746073514454        0.000000000000        0.000000133353     10
      18      -13.746073514454        0.000000000000        0.000000067389      3
  ---------------------------------------------------------------------------------
  Davidson-Liu procedure took  0.831202 s

  Done diagonalizing Hamiltonian, 9.656e-01 seconds.

  ==> Computing 1 Coupling Lists <==

  (N-1) a lists size counts
      Size      Count
         6      52920
        α          1.332e-02 seconds
        β          1.440e-02 seconds
  Time spent building 1-rdm: 8.881e-03 seconds

  ==> CI Vectors & Occupation Number for Singlet (Ms = 0) A <==

  Important determinants with coefficients |C| >= 5.000e-02

  ---- Root No. 0 ----

              A    Coefficients
    ---------------------------
     2222200000   -0.9227259093
     2222020000    0.1067120419
     2220202000    0.1003600935
     222abba000   -0.0707096528
     222baab000   -0.0707096528
     22b2aa0b00    0.0637431868
     22a2bb0a00    0.0637431868
     222bbaa000    0.0614465187
     222aabb000    0.0614465187
     22b2ab0a00    0.0610213455
     22a2ba0b00    0.0610213455
     2202220000    0.0544711218
     22ba20ab00   -0.0533060335
     22ab20ba00   -0.0533060335
     2b22aa00b0    0.0531981538
     2a22bb00a0    0.0531981538
     2202200200    0.0514314402
    ---------------------------

    Occupation Numbers:
        1A    1.96911548    2A    1.95421255    3A    1.93763437    4A    1.92081428
        5A    1.90314699    6A    0.10125830    7A    0.08104079    8A    0.06093383
        9A    0.04441559   10A    0.02742782

    Total Energy:  -383.493946459213930

  ==> Energy Summary <==

    Multi.(2ms)  Irrep.  No.               Energy      <S^2>
    --------------------------------------------------------
       1  (  0)     A     0     -383.493946459214   0.000000
    --------------------------------------------------------
  Computing RDMs for dipole moments ...

  ==> Computing 1 Coupling Lists <==

  (N-1) a lists size counts
      Size      Count
         6      52920
        α          1.291e-02 seconds
        β          1.446e-02 seconds
  Time spent building 1-rdm: 8.688e-03 seconds Done

  ==> Summary of Dipole Moments [e a0] (Nuclear + Electronic) <==

       State           DM_X           DM_Y           DM_Z           |DM|
    --------------------------------------------------------------------
          0A    -0.00000000    -0.00000000    -0.00000000     0.00000000
    --------------------------------------------------------------------
     Nuclear     0.00000000    -0.00000000     0.00000000     0.00000000
    --------------------------------------------------------------------

  ==> Computing 1 Coupling Lists <==

  (N-1) a lists size counts
      Size      Count
         6      52920
        α          1.251e-02 seconds
        β          1.482e-02 seconds
  Time spent building 1-rdm: 8.108e-03 seconds

  ==> Computing 2 Coupling Lists <==

  (N-2) aa lists size counts
      Size      Count
        21      30240
        αα         2.060e-02 seconds
  (N-2) ab lists size counts
      Size      Count
        36      44100
        αβ         4.571e-02 seconds
        ββ         1.483e-02 seconds
  Time spent building 2-rdm: 1.277e-01 seconds

  ==> MCSCF Iterations <==

                      Energy CI                    Energy Orbital
           ------------------------------  ------------------------------
    Iter.        Total Energy       Delta        Total Energy       Delta  Orb. Grad.  Micro
    ----------------------------------------------------------------------------------------
       1    -383.493946459214 -3.8349e+02   -383.503489571505 -3.8350e+02  2.0704e-03    6/N

  ==> General Determinant-Based CI Solver <==

  Number of active orbitals: 10
  Number of active alpha electrons: 5
  Number of active beta electrons: 5

  ==> Diagonalizing Hamiltonian Singlet (Ms = 0) A <==


  Spin-adaptation of the initial guess based on minimum spin-complete subset
  Initial guess determinants do not form a spin-complete set. 2 determinant(s) missing

  Guess determinants after screening: 46

  ==> Initial Guess <==

  Initial guess determinants:         46

  Classification of the initial guess solutions

  Number   2S+1   Selected
  ------------------------
    24       1       *
    22       3        
  ------------------------

    Spin    Root           Energy        <S^2>    Status
  -------------------------------------------------------
   singlet    0     -383.386611290043  +0.000000  added
  -------------------------------------------------------

  ==> Davidson-Liu Solver <==

    --------------------------------------------------------
    Print level                                      Default
    Energy convergence threshold                   1.000e-12
    Residual convergence threshold                 1.000e-07
    Schmidt orthogonality threshold                1.000e-12
    Schmidt discard threshold                      1.000e-07
    Size of the space                                  63504
    Number of roots                                        1
    Maximum number of iterations                         100
    Collapse subspace size                                 2
    Maximum subspace size                                 10
    --------------------------------------------------------

  Davidson-Liu solver: adding 1 guess vectors
  Iteration     Average Energy            max(∆E)            max(Residual)  Vectors
  ---------------------------------------------------------------------------------
       0      -13.669457146977       13.669457146977        0.290589723903      1
       1      -13.765368843685        0.095911696708        0.146627846710      2
       2      -13.783731098621        0.018362254937        0.072384327152      3
       3      -13.787323081154        0.003591982533        0.032693611406      4
       4      -13.787908191290        0.000585110136        0.013499067680      5
       5      -13.787992416899        0.000084225609        0.005228826000      6
       6      -13.788004170549        0.000011753650        0.001837223261      7
       7      -13.788005646525        0.000001475976        0.000801222218      8
       8      -13.788006014413        0.000000367888        0.000439747780      9
       9      -13.788006129142        0.000000114728        0.000238100197     10
      10      -13.788006155761        0.000000026619        0.000124414378      3
      11      -13.788006165343        0.000000009582        0.000061595412      4
      12      -13.788006167190        0.000000001847        0.000028298576      5
      13      -13.788006167570        0.000000000379        0.000011707308      6
      14      -13.788006167637        0.000000000067        0.000004922681      7
      15      -13.788006167651        0.000000000014        0.000002391647      8
      16      -13.788006167655        0.000000000004        0.000001284434      9
      17      -13.788006167656        0.000000000001        0.000000623853     10
      18      -13.788006167656        0.000000000000        0.000000303702      3
      19      -13.788006167656        0.000000000000        0.000000154864      4
      20      -13.788006167656        0.000000000000        0.000000085204      5
  ---------------------------------------------------------------------------------

  Done diagonalizing Hamiltonian, 1.206e+00 seconds.

  ==> Computing 1 Coupling Lists <==

  (N-1) a lists size counts
      Size      Count
         6      52920
        α          1.590e-02 seconds
        β          1.593e-02 seconds
  Time spent building 1-rdm: 9.981e-03 seconds

  ==> Computing 1 Coupling Lists <==

  (N-1) a lists size counts
      Size      Count
         6      52920
        α          1.502e-02 seconds
        β          1.302e-02 seconds
  Time spent building 1-rdm: 8.107e-03 seconds

  ==> Computing 1 Coupling Lists <==

  (N-1) a lists size counts
      Size      Count
         6      52920
        α          1.209e-02 seconds
        β          1.221e-02 seconds
  Time spent building 1-rdm: 7.849e-03 seconds

  ==> Computing 2 Coupling Lists <==

  (N-2) aa lists size counts
      Size      Count
        21      30240
        αα         2.103e-02 seconds
  (N-2) ab lists size counts
      Size      Count
        36      44100
        αβ         4.718e-02 seconds
        ββ         1.483e-02 seconds
  Time spent building 2-rdm: 1.263e-01 seconds
       2    -383.505160310722 -1.1214e-02   -383.505275502428 -1.7859e-03  9.4457e-07    6/N

  ==> General Determinant-Based CI Solver <==

  Number of active orbitals: 10
  Number of active alpha electrons: 5
  Number of active beta electrons: 5

  ==> Diagonalizing Hamiltonian Singlet (Ms = 0) A <==


  Spin-adaptation of the initial guess based on minimum spin-complete subset
  Initial guess determinants do not form a spin-complete set. 2 determinant(s) missing

  Guess determinants after screening: 46

  ==> Initial Guess <==

  Initial guess determinants:         46

  Classification of the initial guess solutions

  Number   2S+1   Selected
  ------------------------
    24       1       *
    22       3        
  ------------------------

    Spin    Root           Energy        <S^2>    Status
  -------------------------------------------------------
   singlet    0     -383.386258125771  +0.000000  added
  -------------------------------------------------------

  ==> Davidson-Liu Solver <==

    --------------------------------------------------------
    Print level                                      Default
    Energy convergence threshold                   1.000e-12
    Residual convergence threshold                 1.000e-07
    Schmidt orthogonality threshold                1.000e-12
    Schmidt discard threshold                      1.000e-07
    Size of the space                                  63504
    Number of roots                                        1
    Maximum number of iterations                         100
    Collapse subspace size                                 2
    Maximum subspace size                                 10
    --------------------------------------------------------

  Davidson-Liu solver: adding 1 guess vectors
  Iteration     Average Energy            max(∆E)            max(Residual)  Vectors
  ---------------------------------------------------------------------------------
       0      -13.671815988804       13.671815988804        0.289763695189      1
       1      -13.767875245210        0.096059256406        0.146877649755      2
       2      -13.786454081654        0.018578836444        0.072884781296      3
       3      -13.790133201361        0.003679119707        0.033131339128      4
       4      -13.790739483896        0.000606282536        0.013765277478      5
       5      -13.790827878622        0.000088394725        0.005356044880      6
       6      -13.790840329401        0.000012450780        0.001894156040      7
       7      -13.790841914533        0.000001585132        0.000829829690      8
       8      -13.790842315183        0.000000400649        0.000460660949      9
       9      -13.790842442420        0.000000127237        0.000250599047     10
      10      -13.790842472141        0.000000029721        0.000131277062      3
      11      -13.790842482820        0.000000010679        0.000064801565      4
      12      -13.790842484874        0.000000002054        0.000029768275      5
      13      -13.790842485298        0.000000000424        0.000012391317      6
      14      -13.790842485373        0.000000000076        0.000005263644      7
      15      -13.790842485390        0.000000000016        0.000002574095      8
      16      -13.790842485395        0.000000000005        0.000001388937      9
      17      -13.790842485396        0.000000000001        0.000000677101     10
      18      -13.790842485396        0.000000000000        0.000000330193      3
      19      -13.790842485396        0.000000000000        0.000000168905      4
      20      -13.790842485396        0.000000000000        0.000000093371      5
  ---------------------------------------------------------------------------------

  Done diagonalizing Hamiltonian, 1.198e+00 seconds.

  ==> Computing 1 Coupling Lists <==

  (N-1) a lists size counts
      Size      Count
         6      52920
        α          1.706e-02 seconds
        β          1.599e-02 seconds
  Time spent building 1-rdm: 1.045e-02 seconds

  ==> Computing 1 Coupling Lists <==

  (N-1) a lists size counts
      Size      Count
         6      52920
        α          1.445e-02 seconds
        β          1.276e-02 seconds
  Time spent building 1-rdm: 8.035e-03 seconds

  ==> Computing 1 Coupling Lists <==

  (N-1) a lists size counts
      Size      Count
         6      52920
        α          1.432e-02 seconds
        β          1.203e-02 seconds
  Time spent building 1-rdm: 8.121e-03 seconds

  ==> Computing 2 Coupling Lists <==

  (N-2) aa lists size counts
      Size      Count
        21      30240
        αα         2.041e-02 seconds
  (N-2) ab lists size counts
      Size      Count
        36      44100
        αβ         4.511e-02 seconds
        ββ         1.483e-02 seconds
  Time spent building 2-rdm: 1.250e-01 seconds
       3    -383.505284622363 -1.2431e-04   -383.505285311748 -9.8093e-06  1.4888e-07    6/N

  ==> General Determinant-Based CI Solver <==

  Number of active orbitals: 10
  Number of active alpha electrons: 5
  Number of active beta electrons: 5

  ==> Diagonalizing Hamiltonian Singlet (Ms = 0) A <==


  Spin-adaptation of the initial guess based on minimum spin-complete subset
  Initial guess determinants do not form a spin-complete set. 2 determinant(s) missing

  Guess determinants after screening: 46

  ==> Initial Guess <==

  Initial guess determinants:         46

  Classification of the initial guess solutions

  Number   2S+1   Selected
  ------------------------
    24       1       *
    22       3        
  ------------------------

    Spin    Root           Energy        <S^2>    Status
  -------------------------------------------------------
   singlet    0     -383.386232319355  +0.000000  added
  -------------------------------------------------------

  ==> Davidson-Liu Solver <==

    --------------------------------------------------------
    Print level                                      Default
    Energy convergence threshold                   1.000e-12
    Residual convergence threshold                 1.000e-07
    Schmidt orthogonality threshold                1.000e-12
    Schmidt discard threshold                      1.000e-07
    Size of the space                                  63504
    Number of roots                                        1
    Maximum number of iterations                         100
    Collapse subspace size                                 2
    Maximum subspace size                                 10
    --------------------------------------------------------

  Davidson-Liu solver: adding 1 guess vectors
  Iteration     Average Energy            max(∆E)            max(Residual)  Vectors
  ---------------------------------------------------------------------------------
       0      -13.672047066260       13.672047066260        0.289695086547      1
       1      -13.768110613768        0.096063547509        0.146890629580      2
       2      -13.786703962407        0.018593348639        0.072918265819      3
       3      -13.790389053038        0.003685090630        0.033160307035      4
       4      -13.790996773082        0.000607720045        0.013782852671      5
       5      -13.791085451843        0.000088678760        0.005364452877      6
       6      -13.791097950234        0.000012498391        0.001897971368      7
       7      -13.791099543086        0.000001592852        0.000831862096      8
       8      -13.791099946197        0.000000403111        0.000462231717      9
       9      -13.791100074407        0.000000128209        0.000251544527     10
      10      -13.791100104367        0.000000029960        0.000131788183      3
      11      -13.791100115127        0.000000010760        0.000065020485      4
      12      -13.791100117196        0.000000002068        0.000029864315      5
      13      -13.791100117622        0.000000000427        0.000012437477      6
      14      -13.791100117699        0.000000000077        0.000005288111      7
      15      -13.791100117715        0.000000000016        0.000002587571      8
      16      -13.791100117720        0.000000000005        0.000001396493      9
      17      -13.791100117722        0.000000000001        0.000000680850     10
      18      -13.791100117722        0.000000000000        0.000000332073      3
      19      -13.791100117722        0.000000000000        0.000000169884      4
      20      -13.791100117722        0.000000000000        0.000000093936      5
  ---------------------------------------------------------------------------------

  Done diagonalizing Hamiltonian, 1.254e+00 seconds.

  ==> Computing 1 Coupling Lists <==

  (N-1) a lists size counts
      Size      Count
         6      52920
        α          1.701e-02 seconds
        β          1.604e-02 seconds
  Time spent building 1-rdm: 1.088e-02 seconds

  ==> Computing 1 Coupling Lists <==

  (N-1) a lists size counts
      Size      Count
         6      52920
        α          1.534e-02 seconds
        β          1.328e-02 seconds
  Time spent building 1-rdm: 8.724e-03 seconds

  ==> Computing 1 Coupling Lists <==

  (N-1) a lists size counts
      Size      Count
         6      52920
        α          1.283e-02 seconds
        β          1.253e-02 seconds
  Time spent building 1-rdm: 8.016e-03 seconds

  ==> Computing 2 Coupling Lists <==

  (N-2) aa lists size counts
      Size      Count
        21      30240
        αα         2.397e-02 seconds
  (N-2) ab lists size counts
      Size      Count
        36      44100
        αβ         4.582e-02 seconds
        ββ         1.493e-02 seconds
  Time spent building 2-rdm: 1.246e-01 seconds
       4    -383.505285370818 -7.4845e-07   -383.505285376856 -6.5108e-08  6.6104e-09    6/N

  ==> General Determinant-Based CI Solver <==

  Number of active orbitals: 10
  Number of active alpha electrons: 5
  Number of active beta electrons: 5

  ==> Diagonalizing Hamiltonian Singlet (Ms = 0) A <==


  Spin-adaptation of the initial guess based on minimum spin-complete subset
  Initial guess determinants do not form a spin-complete set. 2 determinant(s) missing

  Guess determinants after screening: 46

  ==> Initial Guess <==

  Initial guess determinants:         46

  Classification of the initial guess solutions

  Number   2S+1   Selected
  ------------------------
    24       1       *
    22       3        
  ------------------------

    Spin    Root           Energy        <S^2>    Status
  -------------------------------------------------------
   singlet    0     -383.386230718523  +0.000000  added
  -------------------------------------------------------

  ==> Davidson-Liu Solver <==

    --------------------------------------------------------
    Print level                                      Default
    Energy convergence threshold                   1.000e-12
    Residual convergence threshold                 1.000e-07
    Schmidt orthogonality threshold                1.000e-12
    Schmidt discard threshold                      1.000e-07
    Size of the space                                  63504
    Number of roots                                        1
    Maximum number of iterations                         100
    Collapse subspace size                                 2
    Maximum subspace size                                 10
    --------------------------------------------------------

  Davidson-Liu solver: adding 1 guess vectors
  Iteration     Average Energy            max(∆E)            max(Residual)  Vectors
  ---------------------------------------------------------------------------------
       0      -13.672081923884       13.672081923884        0.289689516804      1
       1      -13.768145462436        0.096063538552        0.146891451806      2
       2      -13.786739860605        0.018594398169        0.072920723389      3
       3      -13.790425390518        0.003685529913        0.033162385867      4
       4      -13.791033213946        0.000607823428        0.013784092997      5
       5      -13.791121912897        0.000088698951        0.005365042934      6
       6      -13.791134414674        0.000012501777        0.001898239350      7
       7      -13.791136008085        0.000001593412        0.000832014591      8
       8      -13.791136411387        0.000000403301        0.000462356185      9
       9      -13.791136539674        0.000000128287        0.000251620225     10
      10      -13.791136569653        0.000000029979        0.000131828349      3
      11      -13.791136580419        0.000000010766        0.000065036007      4
      12      -13.791136582489        0.000000002069        0.000029870747      5
      13      -13.791136582916        0.000000000427        0.000012440720      6
      14      -13.791136582992        0.000000000077        0.000005289983      7
      15      -13.791136583009        0.000000000016        0.000002588625      8
      16      -13.791136583014        0.000000000005        0.000001397067      9
      17      -13.791136583015        0.000000000001        0.000000681123     10
      18      -13.791136583015        0.000000000000        0.000000332211      3
      19      -13.791136583015        0.000000000000        0.000000169953      4
      20      -13.791136583015        0.000000000000        0.000000093976      5
  ---------------------------------------------------------------------------------

  Done diagonalizing Hamiltonian, 1.292e+00 seconds.

  ==> Computing 1 Coupling Lists <==

  (N-1) a lists size counts
      Size      Count
         6      52920
        α          1.607e-02 seconds
        β          1.529e-02 seconds
  Time spent building 1-rdm: 1.013e-02 seconds

  ==> Computing 1 Coupling Lists <==

  (N-1) a lists size counts
      Size      Count
         6      52920
        α          1.744e-02 seconds
        β          1.307e-02 seconds
  Time spent building 1-rdm: 9.414e-03 seconds

  ==> Computing 1 Coupling Lists <==

  (N-1) a lists size counts
      Size      Count
         6      52920
        α          1.212e-02 seconds
        β          1.239e-02 seconds
  Time spent building 1-rdm: 7.874e-03 seconds

  ==> Computing 2 Coupling Lists <==

  (N-2) aa lists size counts
      Size      Count
        21      30240
        αα         2.044e-02 seconds
  (N-2) ab lists size counts
      Size      Count
        36      44100
        αβ         4.615e-02 seconds
        ββ         1.470e-02 seconds
  Time spent building 2-rdm: 1.248e-01 seconds
       5    -383.505285377654 -6.8359e-09   -383.505285377792 -9.3547e-10  1.5071e-09    6/N

  ==> General Determinant-Based CI Solver <==

  Number of active orbitals: 10
  Number of active alpha electrons: 5
  Number of active beta electrons: 5

  ==> Diagonalizing Hamiltonian Singlet (Ms = 0) A <==


  Spin-adaptation of the initial guess based on minimum spin-complete subset
  Initial guess determinants do not form a spin-complete set. 2 determinant(s) missing

  Guess determinants after screening: 46

  ==> Initial Guess <==

  Initial guess determinants:         46

  Classification of the initial guess solutions

  Number   2S+1   Selected
  ------------------------
    24       1       *
    22       3        
  ------------------------

    Spin    Root           Energy        <S^2>    Status
  -------------------------------------------------------
   singlet    0     -383.386230618202  +0.000000  added
  -------------------------------------------------------

  ==> Davidson-Liu Solver <==

    --------------------------------------------------------
    Print level                                      Default
    Energy convergence threshold                   1.000e-12
    Residual convergence threshold                 1.000e-07
    Schmidt orthogonality threshold                1.000e-12
    Schmidt discard threshold                      1.000e-07
    Size of the space                                  63504
    Number of roots                                        1
    Maximum number of iterations                         100
    Collapse subspace size                                 2
    Maximum subspace size                                 10
    --------------------------------------------------------

  Davidson-Liu solver: adding 1 guess vectors
  Iteration     Average Energy            max(∆E)            max(Residual)  Vectors
  ---------------------------------------------------------------------------------
       0      -13.672088876099       13.672088876099        0.289689033686      1
       1      -13.768152388628        0.096063512529        0.146891510743      2
       2      -13.786746868679        0.018594480050        0.072920916925      3
       3      -13.790432433654        0.003685564975        0.033162543939      4
       4      -13.791040264932        0.000607831279        0.013784180272      5
       5      -13.791128965307        0.000088700375        0.005365082960      6
       6      -13.791141467318        0.000012502011        0.001898256119      7
       7      -13.791143060766        0.000001593448        0.000832024728      8
       8      -13.791143464081        0.000000403315        0.000462365234      9
       9      -13.791143592374        0.000000128293        0.000251626074     10
      10      -13.791143622355        0.000000029981        0.000131831373      3
      11      -13.791143633122        0.000000010767        0.000065037024      4
      12      -13.791143635191        0.000000002069        0.000029871140      5
      13      -13.791143635618        0.000000000427        0.000012440936      6
      14      -13.791143635695        0.000000000077        0.000005290127      7
      15      -13.791143635711        0.000000000016        0.000002588707      8
      16      -13.791143635716        0.000000000005        0.000001397110      9
      17      -13.791143635718        0.000000000001        0.000000681143     10
      18      -13.791143635718        0.000000000000        0.000000332221      3
      19      -13.791143635718        0.000000000000        0.000000169958      4
      20      -13.791143635718        0.000000000000        0.000000093979      5
  ---------------------------------------------------------------------------------

  Done diagonalizing Hamiltonian, 1.211e+00 seconds.

  ==> Computing 1 Coupling Lists <==

  (N-1) a lists size counts
      Size      Count
         6      52920
        α          1.545e-02 seconds
        β          1.477e-02 seconds
  Time spent building 1-rdm: 1.007e-02 seconds

  ==> Computing 1 Coupling Lists <==

  (N-1) a lists size counts
      Size      Count
         6      52920
        α          1.515e-02 seconds
        β          1.389e-02 seconds
  Time spent building 1-rdm: 8.594e-03 seconds

  ==> Computing 1 Coupling Lists <==

  (N-1) a lists size counts
      Size      Count
         6      52920
        α          1.243e-02 seconds
        β          1.248e-02 seconds
  Time spent building 1-rdm: 7.967e-03 seconds

  ==> Computing 2 Coupling Lists <==

  (N-2) aa lists size counts
      Size      Count
        21      30240
        αα         2.075e-02 seconds
  (N-2) ab lists size counts
      Size      Count
        36      44100
        αβ         4.648e-02 seconds
        ββ         1.548e-02 seconds
  Time spent building 2-rdm: 1.256e-01 seconds
       6    -383.505285377821 -1.6718e-10   -383.505285377828 -3.6493e-11  1.5891e-10    5/Y

  ==> General Determinant-Based CI Solver <==

  Number of active orbitals: 10
  Number of active alpha electrons: 5
  Number of active beta electrons: 5

  ==> Diagonalizing Hamiltonian Singlet (Ms = 0) A <==


  Spin-adaptation of the initial guess based on minimum spin-complete subset
  Initial guess determinants do not form a spin-complete set. 2 determinant(s) missing

  Guess determinants after screening: 46

  ==> Initial Guess <==

  Initial guess determinants:         46

  Classification of the initial guess solutions

  Number   2S+1   Selected
  ------------------------
    24       1       *
    22       3        
  ------------------------

    Spin    Root           Energy        <S^2>    Status
  -------------------------------------------------------
   singlet    0     -383.386230610290  +0.000000  added
  -------------------------------------------------------

  ==> Davidson-Liu Solver <==

    --------------------------------------------------------
    Print level                                      Default
    Energy convergence threshold                   1.000e-12
    Residual convergence threshold                 1.000e-07
    Schmidt orthogonality threshold                1.000e-12
    Schmidt discard threshold                      1.000e-07
    Size of the space                                  63504
    Number of roots                                        1
    Maximum number of iterations                         100
    Collapse subspace size                                 2
    Maximum subspace size                                 10
    --------------------------------------------------------

  Davidson-Liu solver: adding 1 guess vectors
  Iteration     Average Energy            max(∆E)            max(Residual)  Vectors
  ---------------------------------------------------------------------------------
       0      -13.672090477343       13.672090477343        0.289688989324      1
       1      -13.768153986647        0.096063509304        0.146891517388      2
       2      -13.786748474024        0.018594487376        0.072920934030      3
       3      -13.790434042128        0.003685568105        0.033162556325      4
       4      -13.791041874013        0.000607831885        0.013784184831      5
       5      -13.791130574461        0.000088700448        0.005365084523      6
       6      -13.791143076483        0.000012502021        0.001898256165      7
       7      -13.791144669931        0.000001593448        0.000832024752      8
       8      -13.791145073246        0.000000403315        0.000462365442      9
       9      -13.791145201540        0.000000128293        0.000251626343     10
      10      -13.791145231520        0.000000029981        0.000131831499      3
      11      -13.791145242287        0.000000010767        0.000065037046      4
      12      -13.791145244357        0.000000002069        0.000029871146      5
      13      -13.791145244783        0.000000000427        0.000012440943      6
      14      -13.791145244860        0.000000000077        0.000005290134      7
      15      -13.791145244876        0.000000000016        0.000002588711      8
      16      -13.791145244882        0.000000000005        0.000001397112      9
      17      -13.791145244883        0.000000000001        0.000000681144     10
      18      -13.791145244883        0.000000000000        0.000000332222      3
      19      -13.791145244883        0.000000000000        0.000000169958      4
      20      -13.791145244883        0.000000000000        0.000000093979      5
  ---------------------------------------------------------------------------------

  Done diagonalizing Hamiltonian, 1.257e+00 seconds.

  ==> Computing 1 Coupling Lists <==

  (N-1) a lists size counts
      Size      Count
         6      52920
        α          1.654e-02 seconds
        β          1.468e-02 seconds
  Time spent building 1-rdm: 1.044e-02 seconds

  ==> Computing 1 Coupling Lists <==

  (N-1) a lists size counts
      Size      Count
         6      52920
        α          1.511e-02 seconds
        β          1.365e-02 seconds
  Time spent building 1-rdm: 8.930e-03 seconds

  ==> Computing 1 Coupling Lists <==

  (N-1) a lists size counts
      Size      Count
         6      52920
        α          1.238e-02 seconds
        β          1.229e-02 seconds
  Time spent building 1-rdm: 8.237e-03 seconds

  ==> Computing 2 Coupling Lists <==

  (N-2) aa lists size counts
      Size      Count
        21      30240
        αα         2.063e-02 seconds
  (N-2) ab lists size counts
      Size      Count
        36      44100
        αβ         4.597e-02 seconds
        ββ         1.542e-02 seconds
  Time spent building 2-rdm: 1.252e-01 seconds
       7    -383.505285377830 -8.8676e-12   -383.505285377830 -2.2737e-12  1.0499e-10    4/Y

  ==> General Determinant-Based CI Solver <==

  Number of active orbitals: 10
  Number of active alpha electrons: 5
  Number of active beta electrons: 5

  ==> Diagonalizing Hamiltonian Singlet (Ms = 0) A <==


  Spin-adaptation of the initial guess based on minimum spin-complete subset
  Initial guess determinants do not form a spin-complete set. 2 determinant(s) missing

  Guess determinants after screening: 46

  ==> Initial Guess <==

  Initial guess determinants:         46

  Classification of the initial guess solutions

  Number   2S+1   Selected
  ------------------------
    24       1       *
    22       3        
  ------------------------

    Spin    Root           Energy        <S^2>    Status
  -------------------------------------------------------
   singlet    0     -383.386230609092  +0.000000  added
  -------------------------------------------------------

  ==> Davidson-Liu Solver <==

    --------------------------------------------------------
    Print level                                      Default
    Energy convergence threshold                   1.000e-12
    Residual convergence threshold                 1.000e-07
    Schmidt orthogonality threshold                1.000e-12
    Schmidt discard threshold                      1.000e-07
    Size of the space                                  63504
    Number of roots                                        1
    Maximum number of iterations                         100
    Collapse subspace size                                 2
    Maximum subspace size                                 10
    --------------------------------------------------------

  Davidson-Liu solver: adding 1 guess vectors
  Iteration     Average Energy            max(∆E)            max(Residual)  Vectors
  ---------------------------------------------------------------------------------
       0      -13.672090866726       13.672090866726        0.289688985295      1
       1      -13.768154376039        0.096063509312        0.146891518789      2
       2      -13.786748864247        0.018594488208        0.072920935869      3
       3      -13.790434432678        0.003685568432        0.033162557226      4
       4      -13.791042264604        0.000607831926        0.013784184483      5
       5      -13.791130965046        0.000088700442        0.005365084170      6
       6      -13.791143467065        0.000012502019        0.001898255786      7
       7      -13.791145060513        0.000001593448        0.000832024502      8
       8      -13.791145463828        0.000000403315        0.000462365280      9
       9      -13.791145592121        0.000000128293        0.000251626290     10
      10      -13.791145622102        0.000000029981        0.000131831467      3
      11      -13.791145632869        0.000000010767        0.000065037029      4
      12      -13.791145634938        0.000000002069        0.000029871140      5
      13      -13.791145635365        0.000000000427        0.000012440940      6
      14      -13.791145635441        0.000000000077        0.000005290134      7
      15      -13.791145635458        0.000000000016        0.000002588711      8
      16      -13.791145635463        0.000000000005        0.000001397112      9
      17      -13.791145635464        0.000000000001        0.000000681144     10
      18      -13.791145635465        0.000000000000        0.000000332222      3
      19      -13.791145635465        0.000000000000        0.000000169958      4
      20      -13.791145635465        0.000000000000        0.000000093979      5
  ---------------------------------------------------------------------------------

  Done diagonalizing Hamiltonian, 1.288e+00 seconds.

  ==> Computing 1 Coupling Lists <==

  (N-1) a lists size counts
      Size      Count
         6      52920
        α          1.604e-02 seconds
        β          1.547e-02 seconds
  Time spent building 1-rdm: 1.046e-02 seconds

  ==> Computing 1 Coupling Lists <==

  (N-1) a lists size counts
      Size      Count
         6      52920
        α          1.545e-02 seconds
        β          1.354e-02 seconds
  Time spent building 1-rdm: 8.917e-03 seconds

  ==> Computing 1 Coupling Lists <==

  (N-1) a lists size counts
      Size      Count
         6      52920
        α          1.249e-02 seconds
        β          1.234e-02 seconds
  Time spent building 1-rdm: 8.183e-03 seconds

  ==> Computing 2 Coupling Lists <==

  (N-2) aa lists size counts
      Size      Count
        21      30240
        αα         2.070e-02 seconds
  (N-2) ab lists size counts
      Size      Count
        36      44100
        αβ         4.622e-02 seconds
        ββ         1.579e-02 seconds
  Time spent building 2-rdm: 1.256e-01 seconds
       8    -383.505285377831 -6.2528e-13   -383.505285377831 -3.9790e-13  9.8374e-11    3/Y
    ----------------------------------------------------------------------------------------

  A miracle has come to pass: MCSCF iterations have converged!

  Performing final CI Calculation using converged orbitals

  ==> General Determinant-Based CI Solver <==

  Number of active orbitals: 10
  Number of active alpha electrons: 5
  Number of active beta electrons: 5
  Number of determinants (CAS): 63504

  ==> Diagonalizing Hamiltonian Singlet (Ms = 0) A <==


  Davidson-Liu solver algorithm using SigmaVectorSparseList sigma algorithm

  Spin-adaptation of the initial guess based on minimum spin-complete subset
  Initial guess determinants do not form a spin-complete set. 2 determinant(s) missing

  Guess determinants after screening: 46

  ==> Initial Guess <==

  Initial guess determinants:         46

  Classification of the initial guess solutions

  Number   2S+1   Selected
  ------------------------
    24       1       *
    22       3        
  ------------------------

    Spin    Root           Energy        <S^2>    Status
  -------------------------------------------------------
   singlet    0     -383.386230608831  +0.000000  added
  -------------------------------------------------------

  ==> Davidson-Liu Solver <==

    --------------------------------------------------------
    Print level                                      Default
    Energy convergence threshold                   1.000e-12
    Residual convergence threshold                 1.000e-07
    Schmidt orthogonality threshold                1.000e-12
    Schmidt discard threshold                      1.000e-07
    Size of the space                                  63504
    Number of roots                                        1
    Maximum number of iterations                         100
    Collapse subspace size                                 2
    Maximum subspace size                                 10
    --------------------------------------------------------

  Davidson-Liu solver: adding 1 guess vectors
  Iteration     Average Energy            max(∆E)            max(Residual)  Vectors
  ---------------------------------------------------------------------------------
       0      -13.672090967536       13.672090967536        0.289688984954      1
       1      -13.768154476956        0.096063509420        0.146891519130      2
       2      -13.786748965283        0.018594488327        0.072920936102      3
       3      -13.790434533754        0.003685568471        0.033162557248      4
       4      -13.791042365680        0.000607831926        0.013784184249      5
       5      -13.791131066117        0.000088700438        0.005365084007      6
       6      -13.791143568136        0.000012502019        0.001898255649      7
       7      -13.791145161583        0.000001593447        0.000832024410      8
       8      -13.791145564898        0.000000403315        0.000462365215      9
       9      -13.791145693192        0.000000128293        0.000251626263     10
      10      -13.791145723172        0.000000029981        0.000131831452      3
      11      -13.791145733939        0.000000010767        0.000065037023      4
      12      -13.791145736008        0.000000002069        0.000029871137      5
      13      -13.791145736435        0.000000000427        0.000012440939      6
      14      -13.791145736512        0.000000000077        0.000005290133      7
      15      -13.791145736528        0.000000000016        0.000002588710      8
      16      -13.791145736533        0.000000000005        0.000001397112      9
      17      -13.791145736535        0.000000000001        0.000000681144     10
      18      -13.791145736535        0.000000000000        0.000000332222      3
      19      -13.791145736535        0.000000000000        0.000000169958      4
      20      -13.791145736535        0.000000000000        0.000000093979      5
  ---------------------------------------------------------------------------------
  Davidson-Liu procedure took  1.151981 s

  Done diagonalizing Hamiltonian, 1.292e+00 seconds.

  ==> Computing 1 Coupling Lists <==

  (N-1) a lists size counts
      Size      Count
         6      52920
        α          1.632e-02 seconds
        β          1.511e-02 seconds
  Time spent building 1-rdm: 1.055e-02 seconds

  ==> CI Vectors & Occupation Number for Singlet (Ms = 0) A <==

  Important determinants with coefficients |C| >= 5.000e-02

  ---- Root No. 0 ----

              A    Coefficients
    ---------------------------
     2222200000   -0.9006625886
     2222020000    0.1265624790
     2220202000    0.1155476501
     222abba000   -0.0841516481
     222baab000   -0.0841516481
     22a2bb0a00    0.0726988822
     22b2aa0b00    0.0726988822
     222bbaa000    0.0725696005
     222aabb000    0.0725696005
     22a2ba0b00    0.0690436033
     22b2ab0a00    0.0690436033
     22ab20ba00   -0.0595669695
     22ba20ab00   -0.0595669695
     2202220000    0.0591896389
     2b22aa00b0    0.0588687033
     2a22bb00a0    0.0588687033
     2202200200    0.0573636864
     2222000200    0.0553267411
    ---------------------------

    Occupation Numbers:
        1A    1.96416810    2A    1.94446571    3A    1.92086262    4A    1.89482277
        5A    1.86901446    6A    0.13541605    7A    0.10771886    8A    0.07802792
        9A    0.05389777   10A    0.03160573

    Total Energy:  -383.505285377830830

  ==> Energy Summary <==

    Multi.(2ms)  Irrep.  No.               Energy      <S^2>
    --------------------------------------------------------
       1  (  0)     A     0     -383.505285377831   0.000000
    --------------------------------------------------------
  Computing RDMs for dipole moments ...

  ==> Computing 1 Coupling Lists <==

  (N-1) a lists size counts
      Size      Count
         6      52920
        α          1.536e-02 seconds
        β          1.374e-02 seconds
  Time spent building 1-rdm: 8.824e-03 seconds Done

  ==> Summary of Dipole Moments [e a0] (Nuclear + Electronic) <==

       State           DM_X           DM_Y           DM_Z           |DM|
    --------------------------------------------------------------------
          0A    -0.00000000    -0.00000000    -0.00000000     0.00000000
    --------------------------------------------------------------------
     Nuclear     0.00000000    -0.00000000     0.00000000     0.00000000
    --------------------------------------------------------------------

  ==> Computing 1 Coupling Lists <==

  (N-1) a lists size counts
      Size      Count
         6      52920
        α          1.274e-02 seconds
        β          1.262e-02 seconds
  Time spent building 1-rdm: 8.291e-03 seconds
  Canonicalizing final MCSCF orbitals

  ==> Semicanonicalize Orbitals <==

    MIX INACTIVE ORBITALS         TRUE
    MIX GAS ACTIVE ORBITALS       FALSE
    GAS1                          UNSPECIFIED
    INACTIVE_DOCC                 CANONICAL
    INACTIVE_UOCC                 CANONICAL

    Off-Diag. Elements       Max           2-Norm
    ------------------------------------------------
    INACTIVE_DOCC        0.0008259001   0.0041293256
    INACTIVE_UOCC        0.0205948703   0.0956646740
    ------------------------------------------------

    Canonicalization test failed

  Timing for orbital canonicalization:                        0.002 s.

  Time to prepare integrals:        0.450 seconds
  Time to run job          :       18.896 seconds
  Total                    :       19.346 seconds

Scratch directory: /tmp/

  Forte
  ----------------------------------------------------------------------------
  A suite of quantum chemistry methods for strongly correlated electrons

    git branch:  - git commit: 

  Developed by:
    Francesco A. Evangelista, Chenyang Li, Kevin P. Hannon,
    Jeffrey B. Schriber, Tianyuan Zhang, Chenxi Cai,
    Nan He, Nicholas Stair, Shuhe Wang, Renke Huang
  ----------------------------------------------------------------------------


  Preparing forte objects from a Psi4 Wavefunction object   => Loading Basis Set <=

    Name: CC-PVDZ
    Role: ORBITAL
    Keyword: BASIS
    atoms 1-10  entry C          line   138 file /opt/forte/env/share/psi4/basis/cc-pvdz.gbs 
    atoms 11-18 entry H          line    22 file /opt/forte/env/share/psi4/basis/cc-pvdz.gbs 



  ==> MO Space Information <==

  -------------------------------
                        A   Sum
  -------------------------------
    FROZEN_DOCC         0     0
    RESTRICTED_DOCC    29    29
    GAS1               10    10
    GAS2                0     0
    GAS3                0     0
    GAS4                0     0
    GAS5                0     0
    GAS6                0     0
    RESTRICTED_UOCC   141   141
    FROZEN_UOCC         0     0
    Total             180   180
  -------------------------------   => Loading Basis Set <=

    Name: CC-PVDZ-JKFIT
    Role: RIFIT
    Keyword: DF_BASIS_MP2
    atoms 1-10  entry C          line   121 file /opt/forte/env/share/psi4/basis/cc-pvdz-jkfit.gbs 
    atoms 11-18 entry H          line    51 file /opt/forte/env/share/psi4/basis/cc-pvdz-jkfit.gbs 

   => Loading Basis Set <=

    Name: STO-3G
    Role: ORBITAL
    Keyword: MINAO_BASIS
    atoms 1-10  entry C          line    61 file /opt/forte/env/share/psi4/basis/sto-3g.gbs 
    atoms 11-18 entry H          line    19 file /opt/forte/env/share/psi4/basis/sto-3g.gbs 


  State Singlet (Ms = 0) A GAS min: 0 0 0 0 0 0 ; GAS max: 20 0 0 0 0 0 ; weights:
      1.000000000000
  Forte will use psi4 integrals

  ==> Primary Basis Set Summary <==

  Basis Set: CC-PVDZ
    Blend: CC-PVDZ
    Number of shells: 84
    Number of basis functions: 180
    Number of Cartesian functions: 190
    Spherical Harmonics?: true
    Max angular momentum: 2


  JK created using MemDF integrals
  DFHelper Memory: AOs need 0.228 GiB; user supplied 2.980 GiB. 
  Using in-core AOs.

  ==> MemDFJK: Density-Fitted J/K Matrices <==

    J tasked:                   Yes
    K tasked:                   Yes
    wK tasked:                   No
    OpenMP threads:              16
    Memory [MiB]:              3051
    Algorithm:                 Core
    Schwarz Cutoff:           0E+00
    Mask sparsity (%):       0.0000
    Fitting Condition:        1E-10

   => Auxiliary Basis Set <=

  Basis Set: CC-PVDZ-JKFIT
    Blend: CC-PVDZ-JKFIT
    Number of shells: 312
    Number of basis functions: 884
    Number of Cartesian functions: 1010
    Spherical Harmonics?: true
    Max angular momentum: 3



  ==> Integral Transformation <==

  Number of molecular orbitals:                        180
  Number of correlated molecular orbitals:             180
  Number of frozen occupied orbitals:                    0
  Number of frozen unoccupied orbitals:                  0
  Two-electron integral type:              Density fitting


  Computing density fitted integrals

  Number of auxiliary basis functions:  884
  Need 229.13 MB to store DF integrals
  DFHelper Memory: AOs need 0.228 GiB; user supplied 3.125 GiB. 
  Using in-core AOs.

  ==> DFHelper <==
    NBF:                             180
    NAux:                            884
    Schwarz Cutoff:                0E+00
    Mask sparsity (%):                 0
    DFH Avail. Memory [GiB]:       3.125
    OpenMP threads:                   16
    Algorithm:                     STORE
    AO Core:                        True
    MO Core:                       False
    Hold Metric:                   False
    Metric Power:                 -0.500
    Fitting Condition:             1E-10
    Q Shell Max:                       7



  Transforming DF Integrals
  Timing for density-fitting transformation:                  0.167 s.

  Timing for freezing core and virtual orbitals:              0.000 s.
  Timing for computing density-fitted integrals:              0.742 s.

  Skipping MCSCF computation. Using HF or orbitals passed via ref_wfn


  ==> General Determinant-Based CI Solver <==

  Number of active orbitals: 10
  Number of active alpha electrons: 5
  Number of active beta electrons: 5
  Number of determinants (CAS): 63504

  ==> Diagonalizing Hamiltonian Singlet (Ms = 0) A <==


  Davidson-Liu solver algorithm using SigmaVectorSparseList sigma algorithm

  Spin-adaptation of the initial guess based on minimum spin-complete subset
  Initial guess determinants do not form a spin-complete set. 2 determinant(s) missing

  Guess determinants after screening: 46

  ==> Initial Guess <==

  Initial guess determinants:         46

  Classification of the initial guess solutions

  Number   2S+1   Selected
  ------------------------
    24       1       *
    22       3        
  ------------------------

    Spin    Root           Energy        <S^2>    Status
  -------------------------------------------------------
   singlet    0     -383.386230608831  +0.000000  added
  -------------------------------------------------------

  ==> Davidson-Liu Solver <==

    --------------------------------------------------------
    Print level                                      Default
    Energy convergence threshold                   1.000e-12
    Residual convergence threshold                 1.000e-07
    Schmidt orthogonality threshold                1.000e-12
    Schmidt discard threshold                      1.000e-07
    Size of the space                                  63504
    Number of roots                                        1
    Maximum number of iterations                         100
    Collapse subspace size                                 2
    Maximum subspace size                                 10
    --------------------------------------------------------

  Davidson-Liu solver: adding 1 guess vectors
  Iteration     Average Energy            max(∆E)            max(Residual)  Vectors
  ---------------------------------------------------------------------------------
       0      -13.672090967536       13.672090967536        0.289688984954      1
       1      -13.768154476956        0.096063509420        0.146891519130      2
       2      -13.786748965283        0.018594488327        0.072920936102      3
       3      -13.790434533754        0.003685568471        0.033162557248      4
       4      -13.791042365680        0.000607831926        0.013784184249      5
       5      -13.791131066117        0.000088700438        0.005365084007      6
       6      -13.791143568136        0.000012502019        0.001898255649      7
       7      -13.791145161583        0.000001593447        0.000832024410      8
       8      -13.791145564898        0.000000403315        0.000462365215      9
       9      -13.791145693191        0.000000128293        0.000251626263     10
      10      -13.791145723172        0.000000029981        0.000131831452      3
      11      -13.791145733939        0.000000010767        0.000065037023      4
      12      -13.791145736008        0.000000002069        0.000029871137      5
      13      -13.791145736435        0.000000000427        0.000012440939      6
      14      -13.791145736512        0.000000000077        0.000005290133      7
      15      -13.791145736528        0.000000000016        0.000002588710      8
      16      -13.791145736533        0.000000000005        0.000001397112      9
      17      -13.791145736535        0.000000000001        0.000000681144     10
      18      -13.791145736535        0.000000000000        0.000000332222      3
      19      -13.791145736535        0.000000000000        0.000000169958      4
      20      -13.791145736535        0.000000000000        0.000000093979      5
  ---------------------------------------------------------------------------------
  Davidson-Liu procedure took  1.041657 s

  Done diagonalizing Hamiltonian, 1.167e+00 seconds.

  ==> Computing 1 Coupling Lists <==

  (N-1) a lists size counts
      Size      Count
         6      52920
        α          1.475e-02 seconds
        β          1.481e-02 seconds
  Time spent building 1-rdm: 9.774e-03 seconds

  ==> CI Vectors & Occupation Number for Singlet (Ms = 0) A <==

  Important determinants with coefficients |C| >= 5.000e-02

  ---- Root No. 0 ----

              A    Coefficients
    ---------------------------
     2222200000   -0.9006625886
     2222020000    0.1265624790
     2220202000    0.1155476501
     222baab000   -0.0841516481
     222abba000   -0.0841516481
     22a2bb0a00    0.0726988822
     22b2aa0b00    0.0726988822
     222aabb000    0.0725696005
     222bbaa000    0.0725696005
     22b2ab0a00    0.0690436033
     22a2ba0b00    0.0690436033
     22ab20ba00   -0.0595669695
     22ba20ab00   -0.0595669695
     2202220000    0.0591896389
     2a22bb00a0    0.0588687033
     2b22aa00b0    0.0588687033
     2202200200    0.0573636864
     2222000200    0.0553267411
    ---------------------------

    Occupation Numbers:
        1A    1.96416810    2A    1.94446571    3A    1.92086262    4A    1.89482277
        5A    1.86901446    6A    0.13541605    7A    0.10771886    8A    0.07802792
        9A    0.05389777   10A    0.03160573

    Total Energy:  -383.505285377830432

  ==> Energy Summary <==

    Multi.(2ms)  Irrep.  No.               Energy      <S^2>
    --------------------------------------------------------
       1  (  0)     A     0     -383.505285377830   0.000000
    --------------------------------------------------------
  Computing RDMs for dipole moments ...

  ==> Computing 1 Coupling Lists <==

  (N-1) a lists size counts
      Size      Count
         6      52920
        α          1.452e-02 seconds
        β          1.382e-02 seconds
  Time spent building 1-rdm: 8.635e-03 seconds Done

  ==> Summary of Dipole Moments [e a0] (Nuclear + Electronic) <==

       State           DM_X           DM_Y           DM_Z           |DM|
    --------------------------------------------------------------------
          0A    -0.00000000    -0.00000000    -0.00000000     0.00000000
    --------------------------------------------------------------------
     Nuclear     0.00000000    -0.00000000     0.00000000     0.00000000
    --------------------------------------------------------------------
  DSRG 3RDM direct algorithm only available for BLOCK2/SA-MRDSRG
  Set DSRG_3RDM_ALGORITHM to 'EXPLICIT' (default)

  ==> Computing 1 Coupling Lists <==

  (N-1) a lists size counts
      Size      Count
         6      52920
        α          1.223e-02 seconds
        β          1.218e-02 seconds
  Time spent building 1-rdm: 8.123e-03 seconds

  ==> Computing 2 Coupling Lists <==

  (N-2) aa lists size counts
      Size      Count
        21      30240
        αα         2.070e-02 seconds
  (N-2) ab lists size counts
      Size      Count
        36      44100
        αβ         4.495e-02 seconds
        ββ         1.472e-02 seconds
  Time spent building 2-rdm: 1.267e-01 seconds

  ==> Computing 3 Coupling Lists <==

  (N-3) aaa lists size counts
      Size      Count
        56      11340
        ααα        1.800e-02 seconds
  (N-3) aab lists size counts
      Size      Count
       126      25200
        ααβ        5.787e-02 seconds
        αββ        5.972e-02 seconds
        βββ        1.195e-02 seconds
  Time spent building 3-rdm: 8.378e+00 seconds

  ==> Semicanonicalize Orbitals <==

    MIX INACTIVE ORBITALS         FALSE
    MIX GAS ACTIVE ORBITALS       FALSE
    FROZEN_DOCC                   CANONICAL
    FROZEN_UOCC                   CANONICAL
    GAS1                          CANONICAL
    RESTRICTED_DOCC               CANONICAL
    RESTRICTED_UOCC               CANONICAL

    Off-Diag. Elements       Max           2-Norm
    ------------------------------------------------
    GAS1                 0.0011340939   0.0026414976
    RESTRICTED_DOCC      0.0000000000   0.0000000000
    RESTRICTED_UOCC      0.0000000000   0.0000000000
    ------------------------------------------------

    Canonicalization test failed

  Integrals are about to be updated.
  Computing density fitted integrals

  Number of auxiliary basis functions:  884
  Need 229.13 MB to store DF integrals
  DFHelper Memory: AOs need 0.228 GiB; user supplied 3.125 GiB. 
  Using in-core AOs.

  ==> DFHelper <==
    NBF:                             180
    NAux:                            884
    Schwarz Cutoff:                0E+00
    Mask sparsity (%):                 0
    DFH Avail. Memory [GiB]:       3.125
    OpenMP threads:                   16
    Algorithm:                     STORE
    AO Core:                        True
    MO Core:                       False
    Hold Metric:                   False
    Metric Power:                 -0.500
    Fitting Condition:             1E-10
    Q Shell Max:                       7



  Transforming DF Integrals
  Timing for density-fitting transformation:                  0.156 s.

  Timing for freezing core and virtual orbitals:              0.000 s.
  Integrals update took     0.726 s.
  Orbital rotations on spin-free RDMs ...
    Transformed 1 RDMs.
    Transformed 2 RDMs.
    Transformed 3 RDMs.
  Timing for orbital canonicalization:                        0.797 s.

    -----------------------------------------------------------------------
      Spin-Adapted Multireference Driven Similarity Renormalization Group
                            written by Chenyang Li
                                16 OMP threads
    -----------------------------------------------------------------------

  Disclaimer:
    The spin-adapted DSRG code is largely adopted from the spin-integrated code developed by
    Chenyang Li, Kevin P. Hannon, Tianyuan Zhang, and Francesco A. Evangelista.

  ==> Multireference Driven Similarity Renormalization Group <==

    Computing Fock matrix and cleaning JK ....... Done. Timing      0.039 s
    Reading DSRG options ........................ Done. Timing      0.000 s
    Setting ambit MO space ...................... Done. Timing      0.000 s
    Initializing density cumulants .............. Done. Timing      0.024 s
    Filling Fock matrix from ForteIntegrals ..... Done. Timing      0.000 s

  ==> Density Cumulant Summary <==

             2-cumulant   3-cumulant
    --------------------------------
    max        0.315140     0.056494
    2-norm     1.545647     1.204658
    --------------------------------

  ==> Checking Semicanonical Orbitals <==

    Block                Max            Mean
    ----------------------------------------
    CORE        0.0000000000    0.0000000000
    VIRTUAL     0.0000000000    0.0000000000
    GAS1        0.0000000000    0.0000000000
    ----------------------------------------
    Orbitals are semi-canonicalized.

                  --------------------------------------------
                    MR-DSRG Second-Order Perturbation Theory
                  --------------------------------------------


  ==> Calculation Information <==

    --------------------------------------------------------
    Integral type                                         DF
    Source operator                                 STANDARD
    Core-Virtual source type                          NORMAL
    Reference relaxation                                NONE
    3RDM algorithm                                  EXPLICIT
    Internal amplitudes                                 NONE
    State type                                  SINGLE STATE
    Flow parameter                                 5.000e-01
    Taylor expansion threshold                     1.000e-03
    Intruder amplitudes threshold                  1.000e-01
    Number of amplitudes for printing                     15
    --------------------------------------------------------

  ==> DSRG-MRPT2 Memory Information <==

    Memory assigned by the user                      4.00 GB
    Memory available for MR-DSRG                     3.12 GB
    Generalized Fock matrix                        260.64 KB
    1-, 2-, and 3-density cumulants                  8.08 MB
    2-electron (4-index) integrals                  24.56 MB
    T2 cluster amplitudes                           49.12 MB
    3-index auxiliary integrals                     41.65 MB
    T1 cluster amplitudes                           47.11 KB
    Local integrals for CCVV energy                  7.08 MB
    Local integrals for CAVV energy                 11.52 MB
    Local integrals for CCAV energy                  4.42 MB
    Max memory for local intermediates              11.52 MB
    Memory currently available                       2.99 GB


  ==> Prepare Integrals & Amplitudes <==

    Initializing integrals ...................... Done. Timing      0.087 s
    Allocating amplitudes ....................... Done. Timing      0.006 s
    Computing T2 amplitudes minimal ............. Done. Timing      0.009 s
    Computing T1 amplitudes ..................... Done. Timing      0.002 s

  ==> First-Order Excitation Amplitudes Summary <==

    Active Indices:   29   30   31   32   33   34   35   36   37   38
                    
    Largest T1 amplitudes (absolute values):
        i    a                i    a                i    a
    -----------------------------------------------------------------
    [  34   75] 0.0420432 [  37   77] 0.0411990 [  35   73] 0.0353352
    [  36   65] 0.0331782 [  37  119] 0.0292384 [  36  115] 0.0289697
    [  38   82] 0.0272069 [  34  120] 0.0254818 [  35   82] 0.0236886
    [  36   74] 0.0235760 [  38  117] 0.0213669 [  35  117] 0.0185499
    [  35  114] 0.0175733 [  38   73] 0.0151894 [  34  134] 0.0136745
    -----------------------------------------------------------------
    2-Norm of T1 vector:                            0.116529201446768
    Number of nonzero elements:                                  2711
    -----------------------------------------------------------------
    Largest T2 amplitudes (absolute values):
        i    j    a    b                i    j    a    b                i    j    a    b
    -----------------------------------------------------------------------------------------------
    [  30   37   62   37] 0.0145472 [  29   38   57   38] 0.0139886 [  31   38   61   38] 0.0133534
    [  32   38   74   38] 0.0133307 [  31   36   61   36] 0.0133005 [  33   37   68   37] 0.0125644
    [  33   38   68   38] 0.0123335 [  33   34   68   34] 0.0122712 [  29   36   57   36] 0.0122585
    [  33   36   68   36] 0.0121376 [  31   34   61   34] 0.0119164 [  32   35   74   35] 0.0116954
    [  30   30   62   30] 0.0115101 [  29   35   57   35] 0.0113448 [  10   10   29   29] 0.0113417
    -----------------------------------------------------------------------------------------------
    2-Norm of T2 vector:                                                          0.532628829698415
    Number of nonzero elements:                                                             1958884
    -----------------------------------------------------------------------------------------------

  ==> Possible Intruders <==

    T1 amplitudes larger than 0.1000: NULL
    T2 amplitudes larger than 0.1000: NULL
  =>** Before self.dsrg_solver.compute_energy() **<=

    Renormalizing 2-body integrals .............. Done. Timing      0.006 s
    Renormalizing 1-body integrals .............. Done. Timing      0.002 s
    Computing <0|[Fr, T1]|0> .................... Done. Timing      0.000 s
    Computing <0|[Fr, T2]|0> .................... Done. Timing      0.000 s
    Computing <0|[Vr, T1]|0> .................... Done. Timing      0.000 s
    Computing <0|[Vr, T2]|0> minimal ............ Done. Timing      0.023 s
    Computing DF <0|[Vr, T2]|0> CCVV ............ Done. Timing      0.093 s
    Computing DF Hbar1 CAVV ..................... Done. Timing      0.194 s
    Computing DF Hbar1 CCAV ..................... Done. Timing      0.047 s
  DF-PT2 CCVV energy:     -0.649431835317926
  DF-PT2 CAVV energy:     -0.238918056674110
  DF-PT2 CCAV energy:     -0.039408921461011

  ==> DSRG-MRPT2 Energy Summary <==

    E0 (reference)                 =   -383.505285377830660
    < Phi_0 | [Fr, T1] | Phi_0 >   =     -0.007397522154750
    < Phi_0 | [Fr, T2] | Phi_0 >   =      0.008334721024982
    < Phi_0 | [Vr, T1] | Phi_0 >   =      0.006693978544806
    < Phi_0 | [Vr, T2] | Phi_0 >   =     -1.186379301431483
      - [Vr, T2] L1 contribution   =     -1.287217442491911
      - [Vr, T2] L2 contribution   =      0.102997935191709
      - [Vr, T2] L3 contribution   =     -0.002159794131282
    DSRG-MRPT2 correlation energy  =     -1.178748124016445
    DSRG-MRPT2 total energy        =   -384.684033501847125
  =>** After self.dsrg_solver.compute_energy() **<=

  Semicanonical orbitals must be used!


  ==> Total Timings (s) for Computing Commutators <==

           [H1, T1]    [H1, T2]    [H2, T1]    [H2, T2]  
    -----------------------------------------------------
    -> C0       0.000       0.000       0.000       0.000
    -> C1       0.000       0.000       0.000       0.000
    -> C2                   0.000       0.000       0.000
    -----------------------------------------------------


  Time to prepare integrals:        1.199 seconds
  Time to run job          :       11.597 seconds
  Total                    :       12.796 seconds

    Psi4 stopped on: Tuesday, 04 August 2026 11:20PM
    Psi4 wall time for execution: 0:00:34.20

*** Psi4 exiting successfully. Buy a developer a beer!
